p cnf 547 1605
1 3 51 0
-1 3 -51 0
1 -3 -51 0
-1 -3 51 0
4 5 52 0
-4 5 -52 0
4 -5 -52 0
-4 -5 52 0
6 -9 53 0
-6 -9 -53 0
6 9 -53 0
-6 9 53 0
12 14 54 0
-12 14 -54 0
12 -14 -54 0
-12 -14 54 0
-15 16 55 0
15 16 -55 0
-15 -16 -55 0
15 -16 55 0
-18 19 56 0
18 19 -56 0
-18 -19 -56 0
18 -19 56 0
23 24 57 0
-23 24 -57 0
23 -24 -57 0
-23 -24 57 0
-26 -27 58 0
26 -27 -58 0
-26 27 -58 0
26 27 58 0
28 29 59 0
-28 29 -59 0
28 -29 -59 0
-28 -29 59 0
31 -32 60 0
-31 -32 -60 0
31 32 -60 0
-31 32 60 0
-34 -35 61 0
34 -35 -61 0
-34 35 -61 0
34 35 61 0
-37 39 62 0
37 39 -62 0
-37 -39 -62 0
37 -39 62 0
41 42 63 0
-41 42 -63 0
41 -42 -63 0
-41 -42 63 0
-43 -44 64 0
43 -44 -64 0
-43 44 -64 0
43 44 64 0
46 -47 65 0
-46 -47 -65 0
46 47 -65 0
-46 47 65 0
48 49 66 0
-48 49 -66 0
48 -49 -66 0
-48 -49 66 0
50 -51 67 0
-50 -51 -67 0
50 51 -67 0
-50 51 67 0
52 -53 68 0
-52 -53 -68 0
52 53 -68 0
-52 53 68 0
54 -55 69 0
-54 -55 -69 0
54 55 -69 0
-54 55 69 0
56 -57 70 0
-56 -57 -70 0
56 57 -70 0
-56 57 70 0
58 -59 71 0
-58 -59 -71 0
58 59 -71 0
-58 59 71 0
60 -61 72 0
-60 -61 -72 0
60 61 -72 0
-60 61 72 0
62 -63 73 0
-62 -63 -73 0
62 63 -73 0
-62 63 73 0
64 -65 74 0
-64 -65 -74 0
64 65 -74 0
-64 65 74 0
66 -67 75 0
-66 -67 -75 0
66 67 -75 0
-66 67 75 0
68 -69 76 0
-68 -69 -76 0
68 69 -76 0
-68 69 76 0
70 -71 77 0
-70 -71 -77 0
70 71 -77 0
-70 71 77 0
72 -73 78 0
-72 -73 -78 0
72 73 -78 0
-72 73 78 0
74 -75 79 0
-74 -75 -79 0
74 75 -79 0
-74 75 79 0
76 -77 80 0
-76 -77 -80 0
76 77 -80 0
-76 77 80 0
-78 -79 80 0
78 -79 -80 0
-78 79 -80 0
78 79 80 0
-2 -5 81 0
2 -5 -81 0
-2 5 -81 0
2 5 81 0
-6 8 82 0
6 8 -82 0
-6 -8 -82 0
6 -8 82 0
-10 13 83 0
10 13 -83 0
-10 -13 -83 0
10 -13 83 0
-20 21 84 0
20 21 -84 0
-20 -21 -84 0
20 -21 84 0
24 -25 85 0
-24 -25 -85 0
24 25 -85 0
-24 25 85 0
-26 -29 86 0
26 -29 -86 0
-26 29 -86 0
26 29 86 0
-30 -33 87 0
30 -33 -87 0
-30 33 -87 0
30 33 87 0
-36 38 88 0
36 38 -88 0
-36 -38 -88 0
36 -38 88 0
-39 42 89 0
39 42 -89 0
-39 -42 -89 0
39 -42 89 0
44 45 90 0
-44 45 -90 0
44 -45 -90 0
-44 -45 90 0
47 48 91 0
-47 48 -91 0
47 -48 -91 0
-47 -48 91 0
80 -81 92 0
-80 -81 -92 0
80 81 -92 0
-80 81 92 0
82 -83 93 0
-82 -83 -93 0
82 83 -93 0
-82 83 93 0
84 -85 94 0
-84 -85 -94 0
84 85 -94 0
-84 85 94 0
86 -87 95 0
-86 -87 -95 0
86 87 -95 0
-86 87 95 0
88 -89 96 0
-88 -89 -96 0
88 89 -96 0
-88 89 96 0
90 -91 97 0
-90 -91 -97 0
90 91 -97 0
-90 91 97 0
92 -93 98 0
-92 -93 -98 0
92 93 -98 0
-92 93 98 0
94 -95 99 0
-94 -95 -99 0
94 95 -99 0
-94 95 99 0
96 -97 100 0
-96 -97 -100 0
96 97 -100 0
-96 97 100 0
-98 -99 100 0
98 -99 -100 0
-98 99 -100 0
98 99 100 0
-1 -4 101 0
1 -4 -101 0
-1 4 -101 0
1 4 101 0
-5 7 102 0
5 7 -102 0
-5 -7 -102 0
5 -7 102 0
10 12 103 0
-10 12 -103 0
10 -12 -103 0
-10 -12 103 0
17 -18 104 0
-17 -18 -104 0
17 18 -104 0
-17 18 104 0
19 20 105 0
-19 20 -105 0
19 -20 -105 0
-19 -20 105 0
-22 23 106 0
22 23 -106 0
-22 -23 -106 0
22 -23 106 0
24 -25 107 0
-24 -25 -107 0
24 25 -107 0
-24 25 107 0
26 27 108 0
-26 27 -108 0
26 -27 -108 0
-26 -27 108 0
28 -29 109 0
-28 -29 -109 0
28 29 -109 0
-28 29 109 0
-30 -31 110 0
30 -31 -110 0
-30 31 -110 0
30 31 110 0
34 37 111 0
-34 37 -111 0
34 -37 -111 0
-34 -37 111 0
42 44 112 0
-42 44 -112 0
42 -44 -112 0
-42 -44 112 0
45 48 113 0
-45 48 -113 0
45 -48 -113 0
-45 -48 113 0
100 -101 114 0
-100 -101 -114 0
100 101 -114 0
-100 101 114 0
102 -103 115 0
-102 -103 -115 0
102 103 -115 0
-102 103 115 0
104 -105 116 0
-104 -105 -116 0
104 105 -116 0
-104 105 116 0
106 -107 117 0
-106 -107 -117 0
106 107 -117 0
-106 107 117 0
108 -109 118 0
-108 -109 -118 0
108 109 -118 0
-108 109 118 0
110 -111 119 0
-110 -111 -119 0
110 111 -119 0
-110 111 119 0
112 -113 120 0
-112 -113 -120 0
112 113 -120 0
-112 113 120 0
114 -115 121 0
-114 -115 -121 0
114 115 -121 0
-114 115 121 0
116 -117 122 0
-116 -117 -122 0
116 117 -122 0
-116 117 122 0
118 -119 123 0
-118 -119 -123 0
118 119 -123 0
-118 119 123 0
120 -121 124 0
-120 -121 -124 0
120 121 -124 0
-120 121 124 0
122 -123 125 0
-122 -123 -125 0
122 123 -125 0
-122 123 125 0
124 125 0
-124 -125 0
-2 5 126 0
2 5 -126 0
-2 -5 -126 0
2 -5 126 0
6 -8 127 0
-6 -8 -127 0
6 8 -127 0
-6 8 127 0
-10 -11 128 0
10 -11 -128 0
-10 11 -128 0
10 11 128 0
18 20 129 0
-18 20 -129 0
18 -20 -129 0
-18 -20 129 0
23 -24 130 0
-23 -24 -130 0
23 24 -130 0
-23 24 130 0
-25 28 131 0
25 28 -131 0
-25 -28 -131 0
25 -28 131 0
29 30 132 0
-29 30 -132 0
29 -30 -132 0
-29 -30 132 0
31 38 133 0
-31 38 -133 0
31 -38 -133 0
-31 -38 133 0
-39 41 134 0
39 41 -134 0
-39 -41 -134 0
39 -41 134 0
42 -43 135 0
-42 -43 -135 0
42 43 -135 0
-42 43 135 0
-44 -46 136 0
44 -46 -136 0
-44 46 -136 0
44 46 136 0
-49 50 137 0
49 50 -137 0
-49 -50 -137 0
49 -50 137 0
126 -127 138 0
-126 -127 -138 0
126 127 -138 0
-126 127 138 0
128 -129 139 0
-128 -129 -139 0
128 129 -139 0
-128 129 139 0
130 -131 140 0
-130 -131 -140 0
130 131 -140 0
-130 131 140 0
132 -133 141 0
-132 -133 -141 0
132 133 -141 0
-132 133 141 0
134 -135 142 0
-134 -135 -142 0
134 135 -142 0
-134 135 142 0
136 -137 143 0
-136 -137 -143 0
136 137 -143 0
-136 137 143 0
138 -139 144 0
-138 -139 -144 0
138 139 -144 0
-138 139 144 0
140 -141 145 0
-140 -141 -145 0
140 141 -145 0
-140 141 145 0
142 -143 146 0
-142 -143 -146 0
142 143 -146 0
-142 143 146 0
-144 -145 146 0
144 -145 -146 0
-144 145 -146 0
144 145 146 0
6 8 147 0
-6 8 -147 0
6 -8 -147 0
-6 -8 147 0
-9 -13 148 0
9 -13 -148 0
-9 13 -148 0
9 13 148 0
17 -23 149 0
-17 -23 -149 0
17 23 -149 0
-17 23 149 0
25 29 150 0
-25 29 -150 0
25 -29 -150 0
-25 -29 150 0
-31 -32 151 0
31 -32 -151 0
-31 32 -151 0
31 32 151 0
33 34 152 0
-33 34 -152 0
33 -34 -152 0
-33 -34 152 0
37 -38 153 0
-37 -38 -153 0
37 38 -153 0
-37 38 153 0
49 -50 154 0
-49 -50 -154 0
49 50 -154 0
-49 50 154 0
147 -148 155 0
-147 -148 -155 0
147 148 -155 0
-147 148 155 0
149 -150 156 0
-149 -150 -156 0
149 150 -156 0
-149 150 156 0
151 -152 157 0
-151 -152 -157 0
151 152 -157 0
-151 152 157 0
153 -154 158 0
-153 -154 -158 0
153 154 -158 0
-153 154 158 0
155 -156 159 0
-155 -156 -159 0
155 156 -159 0
-155 156 159 0
157 -158 160 0
-157 -158 -160 0
157 158 -160 0
-157 158 160 0
159 160 0
-159 -160 0
1 -3 161 0
-1 -3 -161 0
1 3 -161 0
-1 3 161 0
-4 7 162 0
4 7 -162 0
-4 -7 -162 0
4 -7 162 0
-8 9 163 0
8 9 -163 0
-8 -9 -163 0
8 -9 163 0
11 -12 164 0
-11 -12 -164 0
11 12 -164 0
-11 12 164 0
14 -15 165 0
-14 -15 -165 0
14 15 -165 0
-14 15 165 0
-19 20 166 0
19 20 -166 0
-19 -20 -166 0
19 -20 166 0
-21 -23 167 0
21 -23 -167 0
-21 23 -167 0
21 23 167 0
25 27 168 0
-25 27 -168 0
25 -27 -168 0
-25 -27 168 0
-29 -34 169 0
29 -34 -169 0
-29 34 -169 0
29 34 169 0
35 -37 170 0
-35 -37 -170 0
35 37 -170 0
-35 37 170 0
40 41 171 0
-40 41 -171 0
40 -41 -171 0
-40 -41 171 0
-43 -44 172 0
43 -44 -172 0
-43 44 -172 0
43 44 172 0
49 50 173 0
-49 50 -173 0
49 -50 -173 0
-49 -50 173 0
161 -162 174 0
-161 -162 -174 0
161 162 -174 0
-161 162 174 0
163 -164 175 0
-163 -164 -175 0
163 164 -175 0
-163 164 175 0
165 -166 176 0
-165 -166 -176 0
165 166 -176 0
-165 166 176 0
167 -168 177 0
-167 -168 -177 0
167 168 -177 0
-167 168 177 0
169 -170 178 0
-169 -170 -178 0
169 170 -178 0
-169 170 178 0
171 -172 179 0
-171 -172 -179 0
171 172 -179 0
-171 172 179 0
173 -174 180 0
-173 -174 -180 0
173 174 -180 0
-173 174 180 0
175 -176 181 0
-175 -176 -181 0
175 176 -181 0
-175 176 181 0
177 -178 182 0
-177 -178 -182 0
177 178 -182 0
-177 178 182 0
179 -180 183 0
-179 -180 -183 0
179 180 -183 0
-179 180 183 0
181 -182 184 0
-181 -182 -184 0
181 182 -184 0
-181 182 184 0
183 184 0
-183 -184 0
2 5 185 0
-2 5 -185 0
2 -5 -185 0
-2 -5 185 0
6 10 186 0
-6 10 -186 0
6 -10 -186 0
-6 -10 186 0
11 -12 187 0
-11 -12 -187 0
11 12 -187 0
-11 12 187 0
-15 16 188 0
15 16 -188 0
-15 -16 -188 0
15 -16 188 0
-17 -22 189 0
17 -22 -189 0
-17 22 -189 0
17 22 189 0
-24 26 190 0
24 26 -190 0
-24 -26 -190 0
24 -26 190 0
-27 -30 191 0
27 -30 -191 0
-27 30 -191 0
27 30 191 0
-33 36 192 0
33 36 -192 0
-33 -36 -192 0
33 -36 192 0
38 39 193 0
-38 39 -193 0
38 -39 -193 0
-38 -39 193 0
40 -42 194 0
-40 -42 -194 0
40 42 -194 0
-40 42 194 0
43 44 195 0
-43 44 -195 0
43 -44 -195 0
-43 -44 195 0
-45 -47 196 0
45 -47 -196 0
-45 47 -196 0
45 47 196 0
184 -185 197 0
-184 -185 -197 0
184 185 -197 0
-184 185 197 0
186 -187 198 0
-186 -187 -198 0
186 187 -198 0
-186 187 198 0
188 -189 199 0
-188 -189 -199 0
188 189 -199 0
-188 189 199 0
190 -191 200 0
-190 -191 -200 0
190 191 -200 0
-190 191 200 0
192 -193 201 0
-192 -193 -201 0
192 193 -201 0
-192 193 201 0
194 -195 202 0
-194 -195 -202 0
194 195 -202 0
-194 195 202 0
196 -197 203 0
-196 -197 -203 0
196 197 -203 0
-196 197 203 0
198 -199 204 0
-198 -199 -204 0
198 199 -204 0
-198 199 204 0
200 -201 205 0
-200 -201 -205 0
200 201 -205 0
-200 201 205 0
202 -203 206 0
-202 -203 -206 0
202 203 -206 0
-202 203 206 0
204 -205 207 0
-204 -205 -207 0
204 205 -207 0
-204 205 207 0
206 207 0
-206 -207 0
-1 -5 208 0
1 -5 -208 0
-1 5 -208 0
1 5 208 0
-6 -7 209 0
6 -7 -209 0
-6 7 -209 0
6 7 209 0
-12 13 210 0
12 13 -210 0
-12 -13 -210 0
12 -13 210 0
14 15 211 0
-14 15 -211 0
14 -15 -211 0
-14 -15 211 0
19 20 212 0
-19 20 -212 0
19 -20 -212 0
-19 -20 212 0
-21 22 213 0
21 22 -213 0
-21 -22 -213 0
21 -22 213 0
23 -24 214 0
-23 -24 -214 0
23 24 -214 0
-23 24 214 0
-25 -26 215 0
25 -26 -215 0
-25 26 -215 0
25 26 215 0
28 -29 216 0
-28 -29 -216 0
28 29 -216 0
-28 29 216 0
30 31 217 0
-30 31 -217 0
30 -31 -217 0
-30 -31 217 0
32 -33 218 0
-32 -33 -218 0
32 33 -218 0
-32 33 218 0
34 35 219 0
-34 35 -219 0
34 -35 -219 0
-34 -35 219 0
-36 37 220 0
36 37 -220 0
-36 -37 -220 0
36 -37 220 0
39 -40 221 0
-39 -40 -221 0
39 40 -221 0
-39 40 221 0
41 43 222 0
-41 43 -222 0
41 -43 -222 0
-41 -43 222 0
44 -46 223 0
-44 -46 -223 0
44 46 -223 0
-44 46 223 0
47 -48 224 0
-47 -48 -224 0
47 48 -224 0
-47 48 224 0
207 -208 225 0
-207 -208 -225 0
207 208 -225 0
-207 208 225 0
209 -210 226 0
-209 -210 -226 0
209 210 -226 0
-209 210 226 0
211 -212 227 0
-211 -212 -227 0
211 212 -227 0
-211 212 227 0
213 -214 228 0
-213 -214 -228 0
213 214 -228 0
-213 214 228 0
215 -216 229 0
-215 -216 -229 0
215 216 -229 0
-215 216 229 0
217 -218 230 0
-217 -218 -230 0
217 218 -230 0
-217 218 230 0
219 -220 231 0
-219 -220 -231 0
219 220 -231 0
-219 220 231 0
221 -222 232 0
-221 -222 -232 0
221 222 -232 0
-221 222 232 0
223 -224 233 0
-223 -224 -233 0
223 224 -233 0
-223 224 233 0
225 -226 234 0
-225 -226 -234 0
225 226 -234 0
-225 226 234 0
227 -228 235 0
-227 -228 -235 0
227 228 -235 0
-227 228 235 0
229 -230 236 0
-229 -230 -236 0
229 230 -236 0
-229 230 236 0
231 -232 237 0
-231 -232 -237 0
231 232 -237 0
-231 232 237 0
233 -234 238 0
-233 -234 -238 0
233 234 -238 0
-233 234 238 0
235 -236 239 0
-235 -236 -239 0
235 236 -239 0
-235 236 239 0
-237 -238 239 0
237 -238 -239 0
-237 238 -239 0
237 238 239 0
1 4 240 0
-1 4 -240 0
1 -4 -240 0
-1 -4 240 0
-6 -7 241 0
6 -7 -241 0
-6 7 -241 0
6 7 241 0
-8 12 242 0
8 12 -242 0
-8 -12 -242 0
8 -12 242 0
-13 14 243 0
13 14 -243 0
-13 -14 -243 0
13 -14 243 0
15 -16 244 0
-15 -16 -244 0
15 16 -244 0
-15 16 244 0
-19 21 245 0
19 21 -245 0
-19 -21 -245 0
19 -21 245 0
-22 -23 246 0
22 -23 -246 0
-22 23 -246 0
22 23 246 0
-26 -28 247 0
26 -28 -247 0
-26 28 -247 0
26 28 247 0
32 37 248 0
-32 37 -248 0
32 -37 -248 0
-32 -37 248 0
-38 39 249 0
38 39 -249 0
-38 -39 -249 0
38 -39 249 0
-41 42 250 0
41 42 -250 0
-41 -42 -250 0
41 -42 250 0
43 -44 251 0
-43 -44 -251 0
43 44 -251 0
-43 44 251 0
239 -240 252 0
-239 -240 -252 0
239 240 -252 0
-239 240 252 0
241 -242 253 0
-241 -242 -253 0
241 242 -253 0
-241 242 253 0
243 -244 254 0
-243 -244 -254 0
243 244 -254 0
-243 244 254 0
245 -246 255 0
-245 -246 -255 0
245 246 -255 0
-245 246 255 0
247 -248 256 0
-247 -248 -256 0
247 248 -256 0
-247 248 256 0
249 -250 257 0
-249 -250 -257 0
249 250 -257 0
-249 250 257 0
251 -252 258 0
-251 -252 -258 0
251 252 -258 0
-251 252 258 0
253 -254 259 0
-253 -254 -259 0
253 254 -259 0
-253 254 259 0
255 -256 260 0
-255 -256 -260 0
255 256 -260 0
-255 256 260 0
257 -258 261 0
-257 -258 -261 0
257 258 -261 0
-257 258 261 0
259 -260 262 0
-259 -260 -262 0
259 260 -262 0
-259 260 262 0
261 262 0
-261 -262 0
3 4 263 0
-3 4 -263 0
3 -4 -263 0
-3 -4 263 0
6 7 264 0
-6 7 -264 0
6 -7 -264 0
-6 -7 264 0
-8 10 265 0
8 10 -265 0
-8 -10 -265 0
8 -10 265 0
-11 -14 266 0
11 -14 -266 0
-11 14 -266 0
11 14 266 0
-17 -21 267 0
17 -21 -267 0
-17 21 -267 0
17 21 267 0
-22 23 268 0
22 23 -268 0
-22 -23 -268 0
22 -23 268 0
-24 25 269 0
24 25 -269 0
-24 -25 -269 0
24 -25 269 0
27 -28 270 0
-27 -28 -270 0
27 28 -270 0
-27 28 270 0
30 -31 271 0
-30 -31 -271 0
30 31 -271 0
-30 31 271 0
-33 -34 272 0
33 -34 -272 0
-33 34 -272 0
33 34 272 0
35 -37 273 0
-35 -37 -273 0
35 37 -273 0
-35 37 273 0
-38 39 274 0
38 39 -274 0
-38 -39 -274 0
38 -39 274 0
40 43 275 0
-40 43 -275 0
40 -43 -275 0
-40 -43 275 0
44 46 276 0
-44 46 -276 0
44 -46 -276 0
-44 -46 276 0
262 -263 277 0
-262 -263 -277 0
262 263 -277 0
-262 263 277 0
264 -265 278 0
-264 -265 -278 0
264 265 -278 0
-264 265 278 0
266 -267 279 0
-266 -267 -279 0
266 267 -279 0
-266 267 279 0
268 -269 280 0
-268 -269 -280 0
268 269 -280 0
-268 269 280 0
270 -271 281 0
-270 -271 -281 0
270 271 -281 0
-270 271 281 0
272 -273 282 0
-272 -273 -282 0
272 273 -282 0
-272 273 282 0
274 -275 283 0
-274 -275 -283 0
274 275 -283 0
-274 275 283 0
276 -277 284 0
-276 -277 -284 0
276 277 -284 0
-276 277 284 0
278 -279 285 0
-278 -279 -285 0
278 279 -285 0
-278 279 285 0
280 -281 286 0
-280 -281 -286 0
280 281 -286 0
-280 281 286 0
282 -283 287 0
-282 -283 -287 0
282 283 -287 0
-282 283 287 0
284 -285 288 0
-284 -285 -288 0
284 285 -288 0
-284 285 288 0
286 -287 289 0
-286 -287 -289 0
286 287 -289 0
-286 287 289 0
288 289 0
-288 -289 0
-12 290 0
-24 290 0
-12 -24 291 0
-23 290 0
-12 -23 291 0
-24 -23 291 0
-12 -24 -23 292 0
-22 293 0
-21 293 0
-22 -21 294 0
-20 293 0
-22 -20 294 0
-21 -20 294 0
-22 -21 -20 295 0
-290 296 0
-291 297 0
-292 298 0
-293 296 0
-294 297 0
-295 298 0
-290 -293 297 0
-290 -294 298 0
-290 -295 299 0
-291 -293 298 0
-291 -294 299 0
-291 -295 300 0
-292 -293 299 0
-292 -294 300 0
-292 -295 301 0
-19 302 0
-18 302 0
-19 -18 303 0
-17 302 0
-19 -17 303 0
-18 -17 303 0
-19 -18 -17 304 0
-16 305 0
-15 305 0
-16 -15 306 0
-14 305 0
-16 -14 306 0
-15 -14 306 0
-16 -15 -14 307 0
-302 308 0
-303 309 0
-304 310 0
-305 308 0
-306 309 0
-307 310 0
-302 -305 309 0
-302 -306 310 0
-302 -307 311 0
-303 -305 310 0
-303 -306 311 0
-303 -307 312 0
-304 -305 311 0
-304 -306 312 0
-304 -307 313 0
-13 314 0
-25 314 0
-13 -25 315 0
-11 314 0
-13 -11 315 0
-25 -11 315 0
-13 -25 -11 316 0
-10 317 0
-9 317 0
-10 -9 318 0
-8 317 0
-10 -8 318 0
-9 -8 318 0
-10 -9 -8 319 0
-314 320 0
-315 321 0
-316 322 0
-317 320 0
-318 321 0
-319 322 0
-314 -317 321 0
-314 -318 322 0
-314 -319 323 0
-315 -317 322 0
-315 -318 323 0
-315 -319 324 0
-316 -317 323 0
-316 -318 324 0
-316 -319 325 0
-7 326 0
-6 326 0
-7 -6 327 0
-5 326 0
-7 -5 327 0
-6 -5 327 0
-7 -6 -5 328 0
-4 329 0
-3 329 0
-4 -3 330 0
-2 331 0
-1 331 0
-2 -1 332 0
-37 331 0
-2 -37 332 0
-1 -37 332 0
-2 -1 -37 333 0
-329 334 0
-330 335 0
-331 334 0
-332 335 0
-333 336 0
-329 -331 335 0
-329 -332 336 0
-329 -333 337 0
-330 -331 336 0
-330 -332 337 0
-330 -333 338 0
-326 339 0
-327 340 0
-328 341 0
-334 339 0
-335 340 0
-336 341 0
-337 342 0
-338 343 0
-326 -334 340 0
-326 -335 341 0
-326 -336 342 0
-326 -337 343 0
-326 -338 344 0
-327 -334 341 0
-327 -335 342 0
-327 -336 343 0
-327 -337 344 0
-327 -338 345 0
-328 -334 342 0
-328 -335 343 0
-328 -336 344 0
-328 -337 345 0
-328 -338 346 0
-49 347 0
-48 347 0
-49 -48 348 0
-47 347 0
-49 -47 348 0
-48 -47 348 0
-49 -48 -47 349 0
-46 350 0
-45 350 0
-46 -45 351 0
-44 352 0
-43 352 0
-44 -43 353 0
-42 352 0
-44 -42 353 0
-43 -42 353 0
-44 -43 -42 354 0
-350 355 0
-351 356 0
-352 355 0
-353 356 0
-354 357 0
-350 -352 356 0
-350 -353 357 0
-350 -354 358 0
-351 -352 357 0
-351 -353 358 0
-351 -354 359 0
-347 360 0
-348 361 0
-349 362 0
-355 360 0
-356 361 0
-357 362 0
-358 363 0
-359 364 0
-347 -355 361 0
-347 -356 362 0
-347 -357 363 0
-347 -358 364 0
-347 -359 365 0
-348 -355 362 0
-348 -356 363 0
-348 -357 364 0
-348 -358 365 0
-348 -359 366 0
-349 -355 363 0
-349 -356 364 0
-349 -357 365 0
-349 -358 366 0
-349 -359 367 0
-41 368 0
-40 368 0
-41 -40 369 0
-39 368 0
-41 -39 369 0
-40 -39 369 0
-41 -40 -39 370 0
-38 371 0
-50 371 0
-38 -50 372 0
-36 373 0
-35 373 0
-36 -35 374 0
-34 373 0
-36 -34 374 0
-35 -34 374 0
-36 -35 -34 375 0
-371 376 0
-372 377 0
-373 376 0
-374 377 0
-375 378 0
-371 -373 377 0
-371 -374 378 0
-371 -375 379 0
-372 -373 378 0
-372 -374 379 0
-372 -375 380 0
-368 381 0
-369 382 0
-370 383 0
-376 381 0
-377 382 0
-378 383 0
-379 384 0
-380 385 0
-368 -376 382 0
-368 -377 383 0
-368 -378 384 0
-368 -379 385 0
-368 -380 386 0
-369 -376 383 0
-369 -377 384 0
-369 -378 385 0
-369 -379 386 0
-369 -380 387 0
-370 -376 384 0
-370 -377 385 0
-370 -378 386 0
-370 -379 387 0
-370 -380 388 0
-33 389 0
-32 389 0
-33 -32 390 0
-31 389 0
-33 -31 390 0
-32 -31 390 0
-33 -32 -31 391 0
-30 392 0
-29 392 0
-30 -29 393 0
-28 394 0
-27 394 0
-28 -27 395 0
-26 394 0
-28 -26 395 0
-27 -26 395 0
-28 -27 -26 396 0
-392 397 0
-393 398 0
-394 397 0
-395 398 0
-396 399 0
-392 -394 398 0
-392 -395 399 0
-392 -396 400 0
-393 -394 399 0
-393 -395 400 0
-393 -396 401 0
-389 402 0
-390 403 0
-391 404 0
-397 402 0
-398 403 0
-399 404 0
-400 405 0
-401 406 0
-389 -397 403 0
-389 -398 404 0
-389 -399 405 0
-389 -400 406 0
-389 -401 407 0
-390 -397 404 0
-390 -398 405 0
-390 -399 406 0
-390 -400 407 0
-390 -401 408 0
-391 -397 405 0
-391 -398 406 0
-391 -399 407 0
-391 -400 408 0
-391 -401 409 0
-381 410 0
-383 411 0
-385 412 0
-387 413 0
-402 410 0
-404 411 0
-406 412 0
-408 413 0
-381 -402 411 0
-381 -404 412 0
-381 -406 413 0
-381 -408 414 0
-383 -402 412 0
-383 -404 413 0
-383 -406 414 0
-383 -408 415 0
-385 -402 413 0
-385 -404 414 0
-385 -406 415 0
-387 -402 414 0
-387 -404 415 0
-382 416 0
-386 417 0
-403 416 0
-407 417 0
-382 -403 417 0
-382 -407 418 0
-386 -403 418 0
-384 419 0
-388 420 0
-405 419 0
-409 420 0
-384 -405 420 0
-417 421 0
-419 421 0
-417 -419 422 0
-418 423 0
-420 423 0
-418 -420 424 0
-411 425 0
-416 425 0
-411 -416 426 0
-412 427 0
-421 427 0
-412 -421 428 0
-413 429 0
-422 429 0
-413 -422 430 0
-414 431 0
-423 431 0
-414 -423 432 0
-415 433 0
-424 433 0
-415 -424 434 0
-360 435 0
-362 436 0
-364 437 0
-366 438 0
-410 435 0
-426 436 0
-428 437 0
-430 438 0
-432 439 0
-434 440 0
-360 -410 436 0
-360 -426 437 0
-360 -428 438 0
-360 -430 439 0
-360 -432 440 0
-362 -410 437 0
-362 -426 438 0
-362 -428 439 0
-362 -430 440 0
-364 -410 438 0
-364 -426 439 0
-364 -428 440 0
-366 -410 439 0
-366 -426 440 0
-361 441 0
-365 442 0
-425 441 0
-429 442 0
-433 443 0
-361 -425 442 0
-361 -429 443 0
-365 -425 443 0
-363 444 0
-367 445 0
-427 444 0
-431 445 0
-363 -427 445 0
-442 446 0
-444 446 0
-442 -444 447 0
-443 448 0
-445 448 0
-443 -445 449 0
-436 450 0
-441 450 0
-436 -441 451 0
-437 452 0
-446 452 0
-437 -446 453 0
-438 454 0
-447 454 0
-438 -447 455 0
-439 456 0
-448 456 0
-439 -448 457 0
-440 458 0
-449 458 0
-440 -449 459 0
-339 460 0
-341 461 0
-343 462 0
-345 463 0
-435 460 0
-451 461 0
-453 462 0
-455 463 0
-457 464 0
-459 465 0
-339 -435 461 0
-339 -451 462 0
-339 -453 463 0
-339 -455 464 0
-339 -457 465 0
-341 -435 462 0
-341 -451 463 0
-341 -453 464 0
-341 -455 465 0
-343 -435 463 0
-343 -451 464 0
-343 -453 465 0
-345 -435 464 0
-345 -451 465 0
-340 466 0
-344 467 0
-450 466 0
-454 467 0
-458 468 0
-340 -450 467 0
-340 -454 468 0
-344 -450 468 0
-342 469 0
-346 470 0
-452 469 0
-456 470 0
-342 -452 470 0
-467 471 0
-469 471 0
-467 -469 472 0
-468 473 0
-470 473 0
-468 -470 474 0
-461 475 0
-466 475 0
-461 -466 476 0
-462 477 0
-471 477 0
-462 -471 478 0
-463 479 0
-472 479 0
-463 -472 480 0
-464 481 0
-473 481 0
-464 -473 482 0
-465 483 0
-474 483 0
-465 -474 484 0
-320 485 0
-322 486 0
-324 487 0
-460 485 0
-476 486 0
-478 487 0
-480 488 0
-482 489 0
-484 490 0
-320 -460 486 0
-320 -476 487 0
-320 -478 488 0
-320 -480 489 0
-320 -482 490 0
-322 -460 487 0
-322 -476 488 0
-322 -478 489 0
-322 -480 490 0
-324 -460 488 0
-324 -476 489 0
-324 -478 490 0
-321 491 0
-323 492 0
-325 493 0
-475 491 0
-477 492 0
-479 493 0
-481 494 0
-483 495 0
-321 -475 492 0
-321 -477 493 0
-321 -479 494 0
-321 -481 495 0
-323 -475 493 0
-323 -477 494 0
-323 -479 495 0
-325 -475 494 0
-325 -477 495 0
-486 496 0
-491 496 0
-486 -491 497 0
-487 498 0
-492 498 0
-487 -492 499 0
-488 500 0
-493 500 0
-488 -493 501 0
-489 502 0
-494 502 0
-489 -494 503 0
-490 504 0
-495 504 0
-490 -495 505 0
-308 506 0
-310 507 0
-312 508 0
-485 506 0
-497 507 0
-499 508 0
-501 509 0
-503 510 0
-505 511 0
-308 -485 507 0
-308 -497 508 0
-308 -499 509 0
-308 -501 510 0
-308 -503 511 0
-310 -485 508 0
-310 -497 509 0
-310 -499 510 0
-310 -501 511 0
-312 -485 509 0
-312 -497 510 0
-312 -499 511 0
-309 512 0
-311 513 0
-313 514 0
-496 512 0
-498 513 0
-500 514 0
-502 515 0
-504 516 0
-309 -496 513 0
-309 -498 514 0
-309 -500 515 0
-309 -502 516 0
-311 -496 514 0
-311 -498 515 0
-311 -500 516 0
-313 -496 515 0
-313 -498 516 0
-507 517 0
-512 517 0
-507 -512 518 0
-508 519 0
-513 519 0
-508 -513 520 0
-509 521 0
-514 521 0
-509 -514 522 0
-510 523 0
-515 523 0
-510 -515 524 0
-511 525 0
-516 525 0
-511 -516 526 0
-296 527 0
-298 528 0
-300 529 0
-506 527 0
-518 528 0
-520 529 0
-522 530 0
-524 531 0
-526 532 0
-296 -506 528 0
-296 -518 529 0
-296 -520 530 0
-296 -522 531 0
-296 -524 532 0
-298 -506 529 0
-298 -518 530 0
-298 -520 531 0
-298 -522 532 0
-300 -506 530 0
-300 -518 531 0
-300 -520 532 0
-297 533 0
-299 534 0
-301 535 0
-517 533 0
-519 534 0
-521 535 0
-523 536 0
-525 537 0
-297 -517 534 0
-297 -519 535 0
-297 -521 536 0
-297 -523 537 0
-299 -517 535 0
-299 -519 536 0
-299 -521 537 0
-301 -517 536 0
-301 -519 537 0
-528 538 0
-533 538 0
-528 -533 539 0
-529 540 0
-534 540 0
-529 -534 541 0
-530 542 0
-535 542 0
-530 -535 543 0
-531 544 0
-536 544 0
-531 -536 545 0
-532 546 0
-537 546 0
-532 -537 547 0
-547 0
